8001
36, 39, 40, 37, 38, 48, 24, 5, 15, 6, 4, 25, 26, 47, 14, 52, 13, 27, 28, 12, 11, 51, 33, 43, 10, 9, 8, 41, 19, 45, 32, 49, 35, 34, 44, 46, 16, 29, 50, 20, 23, 30, 2, 7, 42, 21, 17, 3, 18, 31, 22, 1
